     Program PWSCF v.6.3MaX starts on  8Mar2023 at 11:17:54

     R & G space division:  proc/nbgrp/npool/nimage =       4
     Waiting for input...
     Reading input from standard input

     Current dimensions of program PWSCF are:
     Max number of different atomic species (ntypx) = 10
     Max number of k-points (npk) =  40000
     Max angular momentum in pseudopotentials (lmaxx) =  3
     Message from routine volume:
     axis vectors are left-handed

     Subspace diagonalization in iterative solution of the eigenvalue problem:
     a serial algorithm will be used

     bravais-lattice index     =            0
     lattice parameter (alat)  =       4.6476  a.u.
     unit-cell volume          =     353.4961 (a.u.)^3
     number of atoms/cell      =            2
     number of atomic types    =            1
     number of electrons       =         8.00
     number of Kohn-Sham states=            4
     kinetic-energy cutoff     =      40.0000  Ry
     charge density cutoff     =     160.0000  Ry
     convergence threshold     =      1.0E-10
     mixing beta               =       0.7000
     number of iterations used =            8  plain     mixing
     Exchange-correlation      = PBE ( 1  4  3  4 0 0)

     celldm(1)=   4.647592  celldm(2)=   0.000000  celldm(3)=   0.000000
     celldm(4)=   0.000000  celldm(5)=   0.000000  celldm(6)=   0.000000

     crystal axes: (cart. coord. in units of alat)
               a(1) = (   0.866024   0.500000   0.000000 )
               a(2) = (   0.866024  -0.500000   0.000000 )
               a(3) = (   0.000000   0.000000   4.066030 )

     reciprocal axes: (cart. coord. in units 2 pi/alat)
               b(1) = (  0.577351  1.000000 -0.000000 )
               b(2) = (  0.577351 -1.000000 -0.000000 )
               b(3) = ( -0.000000 -0.000000  0.245940 )

     PseudoPot. # 1 for C  read from file:
     /q-e-qe-6.3/pseudo/C.pbe-n-rrkjus_psl.1.0.0.UPF
     MD5 check sum: 1fdd950c42eb37d8afe3dd2f8d12311e
     Pseudo is Ultrasoft + core correction, Zval =  4.0
     Generated using "atomic" code by A. Dal Corso v.6.3MaX
     Using radial grid of 1073 points,  4 beta functions with:
                l(1) =   0
                l(2) =   0
                l(3) =   1
                l(4) =   1
     Q(r) pseudized with 0 coefficients

     atomic species   valence    mass     pseudopotential
        C              4.00    12.01100     C ( 1.00)

      4 Sym. Ops. (no inversion) found

   Cartesian axes

     site n.     atom                  positions (alat units)
         1           C   tau(   1) = (   0.0000000   0.0000000   0.0000000  )
         2           C   tau(   2) = (   0.5773520   0.0000000   0.0000000  )

     number of k points=    31
                       cart. coord. in units 2pi/alat
        k(    1) = (   0.0000000   0.0000000   0.0000000), wk =   0.0200000
        k(    2) = (   0.0577351  -0.1000000   0.0000000), wk =   0.0800000
        k(    3) = (   0.1154702  -0.2000000   0.0000000), wk =   0.0800000
        k(    4) = (   0.1732054  -0.3000000   0.0000000), wk =   0.0800000
        k(    5) = (   0.2309405  -0.4000000   0.0000000), wk =   0.0800000
        k(    6) = (  -0.2886756   0.5000000   0.0000000), wk =   0.0400000
        k(    7) = (   0.1154702   0.0000000   0.0000000), wk =   0.0400000
        k(    8) = (   0.1732054  -0.1000000   0.0000000), wk =   0.0800000
        k(    9) = (   0.2309405  -0.2000000   0.0000000), wk =   0.0800000
        k(   10) = (   0.2886756  -0.3000000   0.0000000), wk =   0.0800000
        k(   11) = (  -0.2309405   0.6000000   0.0000000), wk =   0.0800000
        k(   12) = (  -0.1732054   0.5000000   0.0000000), wk =   0.0800000
        k(   13) = (  -0.1154702   0.4000000   0.0000000), wk =   0.0800000
        k(   14) = (  -0.0577351   0.3000000   0.0000000), wk =   0.0800000
        k(   15) = (   0.0000000   0.2000000   0.0000000), wk =   0.0400000
        k(   16) = (   0.2309405   0.0000000   0.0000000), wk =   0.0400000
        k(   17) = (   0.2886756  -0.1000000   0.0000000), wk =   0.0800000
        k(   18) = (   0.3464107  -0.2000000   0.0000000), wk =   0.0800000
        k(   19) = (  -0.1732054   0.7000000   0.0000000), wk =   0.0800000
        k(   20) = (  -0.1154702   0.6000000   0.0000000), wk =   0.0800000
        k(   21) = (  -0.0577351   0.5000000   0.0000000), wk =   0.0800000
        k(   22) = (   0.0000000   0.4000000   0.0000000), wk =   0.0400000
        k(   23) = (   0.3464107   0.0000000   0.0000000), wk =   0.0400000
        k(   24) = (   0.4041458  -0.1000000   0.0000000), wk =   0.0800000
        k(   25) = (  -0.1154702   0.8000000   0.0000000), wk =   0.0800000
        k(   26) = (  -0.0577351   0.7000000   0.0000000), wk =   0.0800000
        k(   27) = (  -0.0000000   0.6000000   0.0000000), wk =   0.0400000
        k(   28) = (   0.4618810   0.0000000   0.0000000), wk =   0.0400000
        k(   29) = (  -0.0577351   0.9000000   0.0000000), wk =   0.0800000
        k(   30) = (   0.0000000   0.8000000   0.0000000), wk =   0.0400000
        k(   31) = (  -0.5773512   0.0000000   0.0000000), wk =   0.0200000

     Check: negative/imaginary core charge=   -0.000019    0.000000

     Initial potential from superposition of free atoms
     Check: negative starting charge=   -0.000421

     starting charge    7.99992, renormalised to    8.00000

     negative rho (up, down):  4.209E-04 0.000E+00
     Starting wfcs are    8 randomized atomic wfcs

     Self-consistent Calculation

     iteration #  1     ecut=    40.00 Ry     beta= 0.70
     Davidson diagonalization with overlap
     ethr =  1.00E-02,  avg # of iterations =  2.0

     negative rho (up, down):  9.179E-04 0.000E+00

     total energy              =     -24.82340321 Ry
     Harris-Foulkes estimate   =     -24.94779156 Ry
     estimated scf accuracy    <       0.20626683 Ry

[...]

     total energy              =     -24.85684537 Ry
     Harris-Foulkes estimate   =     -24.85684538 Ry
     estimated scf accuracy    <       0.00000001 Ry

     iteration #  7     ecut=    40.00 Ry     beta= 0.70
     Davidson diagonalization with overlap
     ethr =  1.55E-10,  avg # of iterations =  2.5

     negative rho (up, down):  1.156E-03 0.000E+00

     End of self-consistent calculation

          k = 0.0000 0.0000 0.0000 (  1527 PWs)   bands (ev):

   -20.0107  -8.1032  -3.4938  -3.4936

[...]

          k =-0.2887 0.5000 0.0000 (  1508 PWs)   bands (ev):

[...]

          k = 0.0000 0.8000 0.0000 (  1502 PWs)   bands (ev):

[...]

          k =-0.5774 0.0000 0.0000 (  1508 PWs)   bands (ev):

   -14.7391 -13.7327  -6.9007  -2.8034

     highest occupied level (ev):    -1.4578

!    total energy              =     -24.85684538 Ry
     Harris-Foulkes estimate   =     -24.85684538 Ry
     estimated scf accuracy    <          6.7E-11 Ry

     The total energy is the sum of the following terms:

     one-electron contribution =     -90.99387988 Ry
     hartree contribution      =      47.34821721 Ry
     xc contribution           =      -9.28698296 Ry
     ewald contribution        =      28.07580026 Ry

     convergence has been achieved in   7 iterations

     Writing output data file GraphPhon.save/

     General routines

     Parallel routines

   This run was terminated on:  11:17:57   8Mar2023

   JOB DONE.