     Program PHONON v.6.3MaX starts on 12Mar2023 at 17:52:58

     R & G space division:  proc/nbgrp/npool/nimage =       8

     Reading data from directory:
     ./GraphPhon.save/
     Message from routine volume:
     axis vectors are left-handed
     Message from routine volume:
     axis vectors are left-handed

     IMPORTANT: XC functional enforced from input :
     Exchange-correlation      = PBE ( 1  4  3  4 0 0)
     Any further DFT definition will be discarded
     Please, verify this is what you really want

     Check: negative/imaginary core charge=   -0.000019    0.000000

     negative rho (up, down):  1.156E-03 0.000E+00

     Dynamical matrices for ( 1, 1, 1)  uniform grid of q-points
     (   1 q-points):
       N         xq(1)         xq(2)         xq(3)
       1   0.000000000   0.000000000   0.000000000

     Calculation of q =    0.0000000   0.0000000   0.0000000

     Phonon calculation graphene at Gamma

     bravais-lattice index     =            0
     lattice parameter (alat)  =       4.6476  a.u.
     unit-cell volume          =     353.4961 (a.u.)^3
     number of atoms/cell      =            2
     number of atomic types    =            1
     kinetic-energy cut-off    =      40.0000  Ry
     charge density cut-off    =     160.0000  Ry
     convergence threshold     =      1.0E-14
     beta                      =       0.7000
     number of iterations used =            4
     Exchange-correlation      = PBE ( 1  4  3  4 0 0)

     celldm(1)=    8.04985  celldm(2)=    0.57735  celldm(3)=    2.34753
     celldm(4)=    0.00000  celldm(5)=    0.00000  celldm(6)=    0.00000

     crystal axes: (cart. coord. in units of alat)
               a(1) = (  0.8660  0.5000  0.0000 )
               a(2) = (  0.8660 -0.5000  0.0000 )
               a(3) = (  0.0000  0.0000  4.0660 )

     reciprocal axes: (cart. coord. in units 2 pi/alat)
               b(1) = (  0.5774  1.0000 -0.0000 )
               b(2) = (  0.5774 -1.0000 -0.0000 )
               b(3) = ( -0.0000 -0.0000  0.2459 )

     Atoms inside the unit cell:

     Cartesian axes

     site n.  atom      mass           positions (alat units)
        1     C   12.0110   tau(    1) = (    0.00000    0.00000    0.00000  )
        2     C   12.0110   tau(    2) = (    0.57735    0.00000    0.00000  )

     Computing dynamical matrix for
                    q = (   0.0000000   0.0000000   0.0000000 )

      5 Sym.Ops. (with q -> -q+G )

     G cutoff =   87.5420  (   1520 G-vectors)     FFT grid: ( 20, 20, 80)
     number of k points=    31

     PseudoPot. # 1 for C  read from file:
     /q-e-qe-6.3/pseudo/C.pbe-n-rrkjus_psl.1.0.0.UPF
     MD5 check sum: 1fdd950c42eb37d8afe3dd2f8d12311e
     Pseudo is Ultrasoft + core correction, Zval =  4.0
     Generated using "atomic" code by A. Dal Corso v.6.3MaX
     Using radial grid of 1073 points,  4 beta functions with:
                l(1) =   0
                l(2) =   0
                l(3) =   1
                l(4) =   1
     Q(r) pseudized with 0 coefficients

     Mode symmetry, C_2v (mm2)  point group:

     Electric field:
     Dielectric constant
     Born effective charges in two ways

     Atomic displacements:
     There are   6 irreducible representations

     Representation     1      1 modes -A_1  D_1  S_1  To be done

[...]

     Representation     6      1 modes -B_2  D_4  S_4  To be done

     Alpha used in Ewald sum =   1.7000

     negative rho (up, down):  1.156E-03 0.000E+00

     Electric Fields Calculation

      thresh= 1.000E-02 alpha_mix =  0.700 |ddv_scf|^2 =  2.340E-05

[...]

     End of electric fields calculation

          Dielectric constant in cartesian axis

          (       4.352007410       0.000000000       0.000000000 )
          (       0.000000000       4.352027436       0.000000000 )
          (       0.000000000       0.000000000       1.262725368 )

          Effective charges (d Force / dE) in cartesian axis

           atom      1   C
      Ex  (        0.05555        0.00000        0.00000 )
      Ey  (        0.00000        0.05557        0.00000 )
      Ez  (       -0.00000       -0.00000       -0.00179 )
           atom      2   C
      Ex  (        0.06053        0.00000        0.00000 )
      Ey  (        0.00000        0.06053        0.00000 )
      Ez  (        0.00000        0.00000       -0.00067 )

     Representation #  1 mode #   1

     Self-consistent Calculation

[...]

     End of self-consistent calculation

     Convergence has been achieved

[...]

     Representation #  6 mode #   6

     Self-consistent Calculation

[...]

      thresh= 2.026E-07 alpha_mix =  0.700 |ddv_scf|^2 =  5.074E-15

     End of self-consistent calculation

     Convergence has been achieved

     Number of q in the star =    1
     List of q in the star:
          1   0.000000000   0.000000000   0.000000000

          Dielectric constant in cartesian axis

          (       4.352007410       0.000000000       0.000000000 )
          (       0.000000000       4.352027436       0.000000000 )
          (       0.000000000       0.000000000       1.262725368 )

          Effective charges (d Force / dE) in cartesian axis

[...]

          Effective charges (d P / du) in cartesian axis

           atom      1   C
      Px  (        0.05555        0.00000        0.00000 )
      Py  (        0.00000        0.05554        0.00000 )
      Pz  (       -0.00000       -0.00000       -0.00175 )
           atom      2   C
      Px  (        0.06052        0.00000        0.00000 )
      Py  (        0.00000        0.06050       -0.00000 )
      Pz  (        0.00000        0.00000       -0.00064 )

     Diagonalizing the dynamical matrix

     q = (    0.000000000   0.000000000   0.000000000 )

     freq (    1) =      -1.128866 [THz] =     -37.654905 [cm-1]
     freq (    2) =      -1.085602 [THz] =     -36.211775 [cm-1]
     freq (    3) =       4.088182 [THz] =     136.367078 [cm-1]
     freq (    4) =      26.509697 [THz] =     884.268321 [cm-1]
     freq (    5) =      47.453567 [THz] =    1582.880600 [cm-1]
     freq (    6) =      47.454705 [THz] =    1582.918567 [cm-1]

     Mode symmetry, C_2v (mm2)  point group:

     freq (  1 -  1) =        -37.7  [cm-1]   --> B_2  D_4  S_4   I+R
     freq (  2 -  2) =        -36.2  [cm-1]   --> A_1  D_1  S_1   I+R
     freq (  3 -  3) =        136.4  [cm-1]   --> B_1  D_3  S_3   I+R
     freq (  4 -  4) =        884.3  [cm-1]   --> B_1  D_3  S_3   I+R
     freq (  5 -  5) =       1582.9  [cm-1]   --> A_1  D_1  S_1   I+R
     freq (  6 -  6) =       1582.9  [cm-1]   --> B_2  D_4  S_4   I+R

     INITIALIZATION:

     DIELECTRIC CONSTANT AND EFFECTIVE CHARGES:

     DYNAMICAL MATRIX:

      General routines

   This run was terminated on:  17:53:27  12Mar2023

   JOB DONE.