     Program PHONON v.6.3MaX starts on  8Mar2023 at 11:24:27

     R & G space division:  proc/nbgrp/npool/nimage =      12

     Reading data from directory:
     ./GraphPhon.save/
     Message from routine volume:
     axis vectors are left-handed
     Message from routine volume:
     axis vectors are left-handed

     IMPORTANT: XC functional enforced from input :
     Exchange-correlation      = PBE ( 1  4  3  4 0 0)
     Any further DFT definition will be discarded
     Please, verify this is what you really want

     Check: negative/imaginary core charge=   -0.000019    0.000000

     negative rho (up, down):  1.156E-03 0.000E+00

     Dynamical matrices for ( 4, 4, 4)  uniform grid of q-points
     (  21 q-points):
       N         xq(1)         xq(2)         xq(3)
       1   0.000000000   0.000000000   0.000000000
       2   0.000000000   0.000000000   0.061485036
       3   0.000000000   0.000000000  -0.122970072
       4   0.144337801  -0.250000000   0.000000000
       5   0.144337801  -0.250000000   0.061485036
       6   0.144337801  -0.250000000  -0.122970072
       7  -0.288675603   0.500000000   0.000000000
       8  -0.288675603   0.500000000   0.061485036
       9  -0.288675603   0.500000000  -0.122970072
      10   0.288675603   0.000000000   0.000000000
      11   0.288675603   0.000000000   0.061485036
      12   0.288675603   0.000000000  -0.122970072
      13  -0.144337801   0.750000000   0.000000000
      14  -0.144337801   0.750000000   0.061485036
      15  -0.144337801   0.750000000  -0.122970072
      16   0.000000000   0.500000000   0.000000000
      17   0.000000000   0.500000000   0.061485036
      18   0.000000000   0.500000000  -0.122970072
      19  -0.577351205   0.000000000   0.000000000
      20  -0.577351205   0.000000000   0.061485036
      21  -0.577351205   0.000000000  -0.122970072

     Calculation of q =    0.0000000   0.0000000   0.0000000

     Phonon calculation graphene

     bravais-lattice index     =            0
     lattice parameter (alat)  =       4.6476  a.u.
     unit-cell volume          =     353.4961 (a.u.)^3
     number of atoms/cell      =            2
     number of atomic types    =            1
     kinetic-energy cut-off    =      40.0000  Ry
     charge density cut-off    =     160.0000  Ry
     convergence threshold     =      1.0E-14
     beta                      =       0.7000
     number of iterations used =            4
     Exchange-correlation      = PBE ( 1  4  3  4 0 0)

     celldm(1)=    8.04985  celldm(2)=    0.57735  celldm(3)=    2.34753
     celldm(4)=    0.00000  celldm(5)=    0.00000  celldm(6)=    0.00000

     crystal axes: (cart. coord. in units of alat)
               a(1) = (  0.8660  0.5000  0.0000 )
               a(2) = (  0.8660 -0.5000  0.0000 )
               a(3) = (  0.0000  0.0000  4.0660 )

     reciprocal axes: (cart. coord. in units 2 pi/alat)
               b(1) = (  0.5774  1.0000 -0.0000 )
               b(2) = (  0.5774 -1.0000 -0.0000 )
               b(3) = ( -0.0000 -0.0000  0.2459 )

     Atoms inside the unit cell:

     Cartesian axes

     site n.  atom      mass           positions (alat units)
        1     C   12.0110   tau(    1) = (    0.00000    0.00000    0.00000  )
        2     C   12.0110   tau(    2) = (    0.57735    0.00000    0.00000  )

     Computing dynamical matrix for
                    q = (   0.0000000   0.0000000   0.0000000 )

      5 Sym.Ops. (with q -> -q+G )

     G cutoff =   87.5420  (   1014 G-vectors)     FFT grid: ( 20, 20, 80)
     number of k points=    31

     PseudoPot. # 1 for C  read from file:
     /q-e-qe-6.3/pseudo/C.pbe-n-rrkjus_psl.1.0.0.UPF
     MD5 check sum: 1fdd950c42eb37d8afe3dd2f8d12311e
     Pseudo is Ultrasoft + core correction, Zval =  4.0
     Generated using "atomic" code by A. Dal Corso v.6.3MaX
     Using radial grid of 1073 points,  4 beta functions with:
                l(1) =   0
                l(2) =   0
                l(3) =   1
                l(4) =   1
     Q(r) pseudized with 0 coefficients

     Mode symmetry, C_2v (mm2)  point group:

     Electric field:
     Dielectric constant
     Born effective charges in two ways

     Atomic displacements:
     There are   6 irreducible representations

     Representation     1      1 modes -A_1  D_1  S_1  To be done

[...]

     Alpha used in Ewald sum =   1.7000

[...]

     Electric Fields Calculation

      thresh= 1.000E-02 alpha_mix =  0.700 |ddv_scf|^2 =  2.122E-05

[...]

     End of electric fields calculation

          Dielectric constant in cartesian axis

          (       4.352007410      -0.000000000       0.000000000 )
          (      -0.000000000       4.352027435       0.000000000 )
          (      -0.000000000       0.000000000       1.262725367 )

          Effective charges (d Force / dE) in cartesian axis

           atom      1   C
      Ex  (        0.05555        0.00000        0.00000 )
      Ey  (        0.00000        0.05557        0.00000 )
      Ez  (        0.00000        0.00000       -0.00179 )
           atom      2   C
      Ex  (        0.06053       -0.00000        0.00000 )
      Ey  (        0.00000        0.06053        0.00000 )
      Ez  (        0.00000        0.00000       -0.00067 )

     Representation #  1 mode #   1

     Self-consistent Calculation

[...]

     End of self-consistent calculation

     Convergence has been achieved

[...]

     Number of q in the star =    1
     List of q in the star:
          1   0.000000000   0.000000000   0.000000000

          Dielectric constant in cartesian axis

          (       4.352007410      -0.000000000       0.000000000 )
          (      -0.000000000       4.352027435       0.000000000 )
          (      -0.000000000       0.000000000       1.262725367 )

          Effective charges (d Force / dE) in cartesian axis

[...]

          Effective charges (d P / du) in cartesian axis

           atom      1   C
      Px  (        0.05555        0.00000        0.00000 )
      Py  (        0.00000        0.05554        0.00000 )
      Pz  (        0.00000        0.00000       -0.00175 )
           atom      2   C
      Px  (        0.06052        0.00000        0.00000 )
      Py  (        0.00000        0.06050        0.00000 )
      Pz  (        0.00000        0.00000       -0.00064 )

     Diagonalizing the dynamical matrix

     q = (    0.000000000   0.000000000   0.000000000 )

     freq (    1) =      -1.128925 [THz] =     -37.656888 [cm-1]
     freq (    2) =      -1.085628 [THz] =     -36.212641 [cm-1]
     freq (    3) =       4.088161 [THz] =     136.366381 [cm-1]
     freq (    4) =      26.509697 [THz] =     884.268305 [cm-1]
     freq (    5) =      47.453567 [THz] =    1582.880599 [cm-1]
     freq (    6) =      47.454704 [THz] =    1582.918543 [cm-1]

[...]

     freq (  1 -  1) =        -37.7  [cm-1]   --> B_2  D_4  S_4   I+R
     freq (  2 -  2) =        -36.2  [cm-1]   --> A_1  D_1  S_1   I+R
     freq (  3 -  3) =        136.4  [cm-1]   --> B_1  D_3  S_3   I+R
     freq (  4 -  4) =        884.3  [cm-1]   --> B_1  D_3  S_3   I+R
     freq (  5 -  5) =       1582.9  [cm-1]   --> A_1  D_1  S_1   I+R
     freq (  6 -  6) =       1582.9  [cm-1]   --> B_2  D_4  S_4   I+R

[...]

     Subspace diagonalization in iterative solution of the eigenvalue problem:
     a serial algorithm will be used

     Title:
     Phonon calculation graphene

     bravais-lattice index     =            0
     lattice parameter (alat)  =       4.6476  a.u.
     unit-cell volume          =     353.4961 (a.u.)^3
     number of atoms/cell      =            2
     number of atomic types    =            1
     number of electrons       =         8.00
     number of Kohn-Sham states=            4
     kinetic-energy cutoff     =      40.0000  Ry
     charge density cutoff     =     160.0000  Ry
     Exchange-correlation      = PBE ( 1  4  3  4 0 0)

[...]

     atomic species   valence    mass     pseudopotential
        C              4.00    12.01100     C ( 1.00)

      4 Sym. Ops. (no inversion) found

[...]

     site n.     atom                  positions (alat units)
         1           C   tau(   1) = (   0.0000000   0.0000000   0.0000000  )
         2           C   tau(   2) = (   0.5773520   0.0000000   0.0000000  )

     number of k points=   110

     Number of k-points >= 100: set verbosity='high' to print them.

[...]

     The potential is recalculated from file :
     ./_ph0/GraphPhon.save/charge-density.dat

     negative rho (up, down):  1.156E-03 0.000E+00
     Starting wfcs are    8 atomic wfcs

     Band Structure Calculation
     Davidson diagonalization with overlap

     ethr =  1.25E-10,  avg # of iterations =  9.0

     End of band structure calculation

     Number of k-points >= 100: set verbosity='high' to print the bands.

     highest occupied level (ev):    -1.4578

     Writing output data file GraphPhon.save/

[...]

      2 Sym.Ops. (no q -> -q+G )

[...]

     Mode symmetry, C_s (m)     point group:

[...]

     Representation     1      1 modes -A'  To be done

[...]

     Representation     5      1 modes -A''  To be done

[...]

     freq (  1 -  1) =        -36.1  [cm-1]   --> A''
     freq (  2 -  2) =        -34.3  [cm-1]   --> A'
     freq (  3 -  3) =        134.0  [cm-1]   --> A'
     freq (  4 -  4) =        884.2  [cm-1]   --> A'
     freq (  5 -  5) =       1582.9  [cm-1]   --> A'
     freq (  6 -  6) =       1582.9  [cm-1]   --> A''

[...]

     number of k points=    62
                       cart. coord. in units 2pi/alat
        k(    1) = (   0.0000000   0.0000000   0.0000000), wk =   0.0200000
        k(    2) = (   0.0000000   0.0000000  -0.1229701), wk =   0.0000000
        k(    3) = (   0.0577351  -0.1000000   0.0000000), wk =   0.0800000
        k(    4) = (   0.0577351  -0.1000000  -0.1229701), wk =   0.0000000
        k(    5) = (   0.1154702  -0.2000000   0.0000000), wk =   0.0800000
        k(    6) = (   0.1154702  -0.2000000  -0.1229701), wk =   0.0000000
        k(    7) = (   0.1732054  -0.3000000   0.0000000), wk =   0.0800000
        k(    8) = (   0.1732054  -0.3000000  -0.1229701), wk =   0.0000000
        k(    9) = (   0.2309405  -0.4000000   0.0000000), wk =   0.0800000
        k(   10) = (   0.2309405  -0.4000000  -0.1229701), wk =   0.0000000
        k(   11) = (  -0.2886756   0.5000000   0.0000000), wk =   0.0400000
        k(   12) = (  -0.2886756   0.5000000  -0.1229701), wk =   0.0000000
        k(   13) = (   0.1154702   0.0000000   0.0000000), wk =   0.0400000
        k(   14) = (   0.1154702   0.0000000  -0.1229701), wk =   0.0000000
        k(   15) = (   0.1732054  -0.1000000   0.0000000), wk =   0.0800000
        k(   16) = (   0.1732054  -0.1000000  -0.1229701), wk =   0.0000000
        k(   17) = (   0.2309405  -0.2000000   0.0000000), wk =   0.0800000
        k(   18) = (   0.2309405  -0.2000000  -0.1229701), wk =   0.0000000
        k(   19) = (   0.2886756  -0.3000000   0.0000000), wk =   0.0800000
        k(   20) = (   0.2886756  -0.3000000  -0.1229701), wk =   0.0000000
        k(   21) = (  -0.2309405   0.6000000   0.0000000), wk =   0.0800000
[...]
        k(   37) = (  -0.1732054   0.7000000   0.0000000), wk =   0.0800000
        k(   38) = (  -0.1732054   0.7000000  -0.1229701), wk =   0.0000000
        k(   39) = (  -0.1154702   0.6000000   0.0000000), wk =   0.0800000
        k(   40) = (  -0.1154702   0.6000000  -0.1229701), wk =   0.0000000
        k(   41) = (  -0.0577351   0.5000000   0.0000000), wk =   0.0800000
        k(   42) = (  -0.0577351   0.5000000  -0.1229701), wk =   0.0000000
        k(   43) = (   0.0000000   0.4000000   0.0000000), wk =   0.0400000
        k(   44) = (   0.0000000   0.4000000  -0.1229701), wk =   0.0000000
        k(   45) = (   0.3464107   0.0000000   0.0000000), wk =   0.0400000
        k(   46) = (   0.3464107   0.0000000  -0.1229701), wk =   0.0000000
        k(   47) = (   0.4041458  -0.1000000   0.0000000), wk =   0.0800000
        k(   48) = (   0.4041458  -0.1000000  -0.1229701), wk =   0.0000000
        k(   49) = (  -0.1154702   0.8000000   0.0000000), wk =   0.0800000
        k(   50) = (  -0.1154702   0.8000000  -0.1229701), wk =   0.0000000
        k(   51) = (  -0.0577351   0.7000000   0.0000000), wk =   0.0800000
        k(   52) = (  -0.0577351   0.7000000  -0.1229701), wk =   0.0000000
        k(   53) = (  -0.0000000   0.6000000   0.0000000), wk =   0.0400000
        k(   54) = (  -0.0000000   0.6000000  -0.1229701), wk =   0.0000000
        k(   55) = (   0.4618810   0.0000000   0.0000000), wk =   0.0400000
        k(   56) = (   0.4618810   0.0000000  -0.1229701), wk =   0.0000000
        k(   57) = (  -0.0577351   0.9000000   0.0000000), wk =   0.0800000
        k(   58) = (  -0.0577351   0.9000000  -0.1229701), wk =   0.0000000
        k(   59) = (   0.0000000   0.8000000   0.0000000), wk =   0.0400000
        k(   60) = (   0.0000000   0.8000000  -0.1229701), wk =   0.0000000
        k(   61) = (  -0.5773512   0.0000000   0.0000000), wk =   0.0200000
        k(   62) = (  -0.5773512   0.0000000  -0.1229701), wk =   0.0000000

[...]

          k = 0.0000 0.0000 0.0000 (  1527 PWs)   bands (ev):

   -20.0107  -8.1032  -3.4938  -3.4936

[...]

          k =-0.2887 0.5000 0.0000 (  1508 PWs)   bands (ev):

[...]

     freq (  1 -  1) =        -24.5  [cm-1]   --> B_2  D_4  S_4
     freq (  2 -  2) =        -23.3  [cm-1]   --> A_1  D_1  S_1
     freq (  3 -  3) =        140.6  [cm-1]   --> B_1  D_3  S_3
     freq (  4 -  4) =        885.1  [cm-1]   --> B_1  D_3  S_3
     freq (  5 -  5) =       1583.1  [cm-1]   --> A_1  D_1  S_1
     freq (  6 -  6) =       1583.1  [cm-1]   --> B_2  D_4  S_4

[...]

     Number of q in the star =    2
     List of q in the star:
          1   0.144337801  -0.250000000   0.000000000
          2   0.144337801   0.250000000   0.000000000
     In addition there is the -q list:
          1  -0.144337801   0.250000000  -0.000000000
          2  -0.144337801  -0.250000000  -0.000000000

[...]

     freq (  1 -  1) =        200.5  [cm-1]   --> A''
     freq (  2 -  2) =        460.6  [cm-1]   --> A'
     freq (  3 -  3) =        789.5  [cm-1]   --> A'
     freq (  4 -  4) =        828.6  [cm-1]   --> A''
     freq (  5 -  5) =       1479.5  [cm-1]   --> A'
     freq (  6 -  6) =       1595.7  [cm-1]   --> A'

[...]

     No symmetry!

[...]

     Mode symmetry, C_1 (1)     point group:

[...]

     Representation     1      1 modes -A  To be done

[...]

     freq (  1 -  1) =        199.0  [cm-1]   --> A
     freq (  2 -  2) =        460.5  [cm-1]   --> A
     freq (  3 -  3) =        789.4  [cm-1]   --> A
     freq (  4 -  4) =        828.5  [cm-1]   --> A
     freq (  5 -  5) =       1479.4  [cm-1]   --> A
     freq (  6 -  6) =       1595.6  [cm-1]   --> A

[...]

     freq (  1 -  1) =        477.6  [cm-1]   --> A''
     freq (  2 -  2) =        618.1  [cm-1]   --> A'
     freq (  3 -  3) =        635.9  [cm-1]   --> A''
     freq (  4 -  4) =       1325.6  [cm-1]   --> A'
     freq (  5 -  5) =       1350.5  [cm-1]   --> A'
     freq (  6 -  6) =       1404.6  [cm-1]   --> A'

[...]

     freq (  1 -  1) =        199.1  [cm-1]   --> A'
     freq (  2 -  2) =        460.5  [cm-1]   --> A''
     freq (  3 -  3) =        789.4  [cm-1]   --> A'
     freq (  4 -  4) =        828.5  [cm-1]   --> A'
     freq (  5 -  5) =       1479.4  [cm-1]   --> A''
     freq (  6 -  6) =       1595.6  [cm-1]   --> A'

[...]

     freq (  1 -  1) =        375.0  [cm-1]   --> A''
     freq (  2 -  2) =        676.8  [cm-1]   --> A''
     freq (  3 -  3) =        829.1  [cm-1]   --> A'
     freq (  4 -  4) =       1077.4  [cm-1]   --> A'
     freq (  5 -  5) =       1371.0  [cm-1]   --> A'
     freq (  6 -  6) =       1411.1  [cm-1]   --> A'

[...]

     Number of q in the star =    2
     List of q in the star:
          1  -0.144337801   0.750000000  -0.122970072
          2  -0.144337801  -0.750000000  -0.122970072
     In addition there is the -q list:
          1   0.144337801  -0.750000000   0.122970072
          2   0.144337801   0.750000000   0.122970072

[...]

     No symmetry!

[...]

     Representation     6      1 modes -A  To be done

[...]

     Mode symmetry, C_1 (1)     point group:

     freq (  1 -  1) =        392.7  [cm-1]   --> A
     freq (  2 -  2) =        683.1  [cm-1]   --> A
     freq (  3 -  3) =        843.0  [cm-1]   --> A
     freq (  4 -  4) =       1080.9  [cm-1]   --> A
     freq (  5 -  5) =       1380.2  [cm-1]   --> A
     freq (  6 -  6) =       1416.1  [cm-1]   --> A

[...]

     freq (  1 -  1) =        393.4  [cm-1]   --> A''
     freq (  2 -  2) =        683.0  [cm-1]   --> A''
     freq (  3 -  3) =        843.1  [cm-1]   --> A'
     freq (  4 -  4) =       1080.7  [cm-1]   --> A'
     freq (  5 -  5) =       1380.4  [cm-1]   --> A'
     freq (  6 -  6) =       1416.0  [cm-1]   --> A'

[...]

     number of k points=   110

     Number of k-points >= 100: set verbosity='high' to print them.

[...]

     Number of k-points >= 100: set verbosity='high' to print the bands.

[...]

      2 Sym.Ops. (no q -> -q+G )

[...]

     Representation     4      1 modes -A'  To be done

[...]

     Representation     6      1 modes -A''  To be done

[...]

     Mode symmetry, C_s (m)     point group:

     freq (  1 -  1) =        476.8  [cm-1]   --> A'
     freq (  2 -  2) =        616.8  [cm-1]   --> A''
     freq (  3 -  3) =        635.4  [cm-1]   --> A'
     freq (  4 -  4) =       1325.1  [cm-1]   --> A'
     freq (  5 -  5) =       1350.1  [cm-1]   --> A'
     freq (  6 -  6) =       1404.1  [cm-1]   --> A''

     Calculation of q =   -0.5773512   0.0000000  -0.1229701

     Title:
     Phonon calculation graphene

     bravais-lattice index     =            0
     lattice parameter (alat)  =       4.6476  a.u.
     unit-cell volume          =     353.4961 (a.u.)^3
     number of atoms/cell      =            2
     number of atomic types    =            1
     number of electrons       =         8.00
     number of Kohn-Sham states=            4
     kinetic-energy cutoff     =      40.0000  Ry
     charge density cutoff     =     160.0000  Ry
     Exchange-correlation      = PBE ( 1  4  3  4 0 0)

[...]

     atomic species   valence    mass     pseudopotential
        C              4.00    12.01100     C ( 1.00)

      4 Sym. Ops. (no inversion) found

[...]

     site n.     atom                  positions (alat units)
         1           C   tau(   1) = (   0.0000000   0.0000000   0.0000000  )
         2           C   tau(   2) = (   0.5773520   0.0000000   0.0000000  )

     number of k points=    62
                       cart. coord. in units 2pi/alat
        k(    1) = (   0.0000000   0.0000000   0.0000000), wk =   0.0200000
        k(    2) = (  -0.5773512   0.0000000  -0.1229701), wk =   0.0000000
        k(    3) = (   0.0577351  -0.1000000   0.0000000), wk =   0.0800000
        k(    4) = (  -0.5196161  -0.1000000  -0.1229701), wk =   0.0000000
        k(    5) = (   0.1154702  -0.2000000   0.0000000), wk =   0.0800000
        k(    6) = (  -0.4618810  -0.2000000  -0.1229701), wk =   0.0000000
        k(    7) = (   0.1732054  -0.3000000   0.0000000), wk =   0.0800000
        k(    8) = (  -0.4041458  -0.3000000  -0.1229701), wk =   0.0000000
        k(    9) = (   0.2309405  -0.4000000   0.0000000), wk =   0.0800000
        k(   10) = (  -0.3464107  -0.4000000  -0.1229701), wk =   0.0000000
        k(   11) = (  -0.2886756   0.5000000   0.0000000), wk =   0.0400000
        k(   12) = (  -0.8660268   0.5000000  -0.1229701), wk =   0.0000000
        k(   13) = (   0.1154702   0.0000000   0.0000000), wk =   0.0400000
        k(   14) = (  -0.4618810   0.0000000  -0.1229701), wk =   0.0000000
        k(   15) = (   0.1732054  -0.1000000   0.0000000), wk =   0.0800000
        k(   16) = (  -0.4041458  -0.1000000  -0.1229701), wk =   0.0000000
        k(   17) = (   0.2309405  -0.2000000   0.0000000), wk =   0.0800000
        k(   18) = (  -0.3464107  -0.2000000  -0.1229701), wk =   0.0000000
        k(   19) = (   0.2886756  -0.3000000   0.0000000), wk =   0.0800000
        k(   20) = (  -0.2886756  -0.3000000  -0.1229701), wk =   0.0000000
        k(   21) = (  -0.2309405   0.6000000   0.0000000), wk =   0.0800000
        k(   22) = (  -0.8082917   0.6000000  -0.1229701), wk =   0.0000000
        k(   23) = (  -0.1732054   0.5000000   0.0000000), wk =   0.0800000
        k(   24) = (  -0.7505566   0.5000000  -0.1229701), wk =   0.0000000
        k(   25) = (  -0.1154702   0.4000000   0.0000000), wk =   0.0800000
        k(   26) = (  -0.6928214   0.4000000  -0.1229701), wk =   0.0000000
        k(   27) = (  -0.0577351   0.3000000   0.0000000), wk =   0.0800000
        k(   28) = (  -0.6350863   0.3000000  -0.1229701), wk =   0.0000000
        k(   29) = (   0.0000000   0.2000000   0.0000000), wk =   0.0400000
        k(   30) = (  -0.5773512   0.2000000  -0.1229701), wk =   0.0000000
        k(   31) = (   0.2309405   0.0000000   0.0000000), wk =   0.0400000
        k(   32) = (  -0.3464107   0.0000000  -0.1229701), wk =   0.0000000
        k(   33) = (   0.2886756  -0.1000000   0.0000000), wk =   0.0800000
        k(   34) = (  -0.2886756  -0.1000000  -0.1229701), wk =   0.0000000
        k(   35) = (   0.3464107  -0.2000000   0.0000000), wk =   0.0800000
        k(   36) = (  -0.2309405  -0.2000000  -0.1229701), wk =   0.0000000
        k(   37) = (  -0.1732054   0.7000000   0.0000000), wk =   0.0800000
        k(   38) = (  -0.7505566   0.7000000  -0.1229701), wk =   0.0000000
        k(   39) = (  -0.1154702   0.6000000   0.0000000), wk =   0.0800000
        k(   40) = (  -0.6928214   0.6000000  -0.1229701), wk =   0.0000000
        k(   41) = (  -0.0577351   0.5000000   0.0000000), wk =   0.0800000
        k(   42) = (  -0.6350863   0.5000000  -0.1229701), wk =   0.0000000
        k(   43) = (   0.0000000   0.4000000   0.0000000), wk =   0.0400000
        k(   44) = (  -0.5773512   0.4000000  -0.1229701), wk =   0.0000000
        k(   45) = (   0.3464107   0.0000000   0.0000000), wk =   0.0400000
        k(   46) = (  -0.2309405   0.0000000  -0.1229701), wk =   0.0000000
        k(   47) = (   0.4041458  -0.1000000   0.0000000), wk =   0.0800000
        k(   48) = (  -0.1732054  -0.1000000  -0.1229701), wk =   0.0000000
        k(   49) = (  -0.1154702   0.8000000   0.0000000), wk =   0.0800000
        k(   50) = (  -0.6928214   0.8000000  -0.1229701), wk =   0.0000000
        k(   51) = (  -0.0577351   0.7000000   0.0000000), wk =   0.0800000
        k(   52) = (  -0.6350863   0.7000000  -0.1229701), wk =   0.0000000
        k(   53) = (  -0.0000000   0.6000000   0.0000000), wk =   0.0400000
        k(   54) = (  -0.5773512   0.6000000  -0.1229701), wk =   0.0000000
        k(   55) = (   0.4618810   0.0000000   0.0000000), wk =   0.0400000
        k(   56) = (  -0.1154702   0.0000000  -0.1229701), wk =   0.0000000
        k(   57) = (  -0.0577351   0.9000000   0.0000000), wk =   0.0800000
        k(   58) = (  -0.6350863   0.9000000  -0.1229701), wk =   0.0000000
        k(   59) = (   0.0000000   0.8000000   0.0000000), wk =   0.0400000
        k(   60) = (  -0.5773512   0.8000000  -0.1229701), wk =   0.0000000
        k(   61) = (  -0.5773512   0.0000000   0.0000000), wk =   0.0200000
        k(   62) = (  -1.1547024   0.0000000  -0.1229701), wk =   0.0000000

     Check: negative/imaginary core charge=   -0.000019    0.000000

     The potential is recalculated from file :
     ./_ph0/GraphPhon.save/charge-density.dat

     negative rho (up, down):  1.156E-03 0.000E+00
     Starting wfcs are    8 atomic wfcs

     Band Structure Calculation
     Davidson diagonalization with overlap

     ethr =  1.25E-10,  avg # of iterations =  8.9

     End of band structure calculation

[...]

          k = 0.0000 0.8000 0.0000 (  1502 PWs)   bands (ev):

[...]

          k =-1.1547 0.0000-0.1230 (  1526 PWs)   bands (ev):

   -20.0107  -8.1030  -3.4936  -3.4934

     highest occupied level (ev):    -1.4578

     Writing output data file GraphPhon.save/

     Phonon calculation graphene

     bravais-lattice index     =            0
     lattice parameter (alat)  =       4.6476  a.u.
     unit-cell volume          =     353.4961 (a.u.)^3
     number of atoms/cell      =            2
     number of atomic types    =            1
     kinetic-energy cut-off    =      40.0000  Ry
     charge density cut-off    =     160.0000  Ry
     convergence threshold     =      1.0E-14
     beta                      =       0.7000
     number of iterations used =            4
     Exchange-correlation      = PBE ( 1  4  3  4 0 0)

     celldm(1)=    8.04985  celldm(2)=    0.57735  celldm(3)=    2.34753
     celldm(4)=    0.00000  celldm(5)=    0.00000  celldm(6)=    0.00000

     crystal axes: (cart. coord. in units of alat)
               a(1) = (  0.8660  0.5000  0.0000 )
               a(2) = (  0.8660 -0.5000  0.0000 )
               a(3) = (  0.0000  0.0000  4.0660 )

     reciprocal axes: (cart. coord. in units 2 pi/alat)
               b(1) = (  0.5774  1.0000 -0.0000 )
               b(2) = (  0.5774 -1.0000 -0.0000 )
               b(3) = ( -0.0000 -0.0000  0.2459 )

     Atoms inside the unit cell:

     Cartesian axes

     site n.  atom      mass           positions (alat units)
        1     C   12.0110   tau(    1) = (    0.00000    0.00000    0.00000  )
        2     C   12.0110   tau(    2) = (    0.57735    0.00000    0.00000  )

     Computing dynamical matrix for
                    q = (  -0.5773512   0.0000000  -0.1229701 )

      5 Sym.Ops. (with q -> -q+G )

     G cutoff =   87.5420  (   1014 G-vectors)     FFT grid: ( 20, 20, 80)
     number of k points=    62

     PseudoPot. # 1 for C  read from file:
     /q-e-qe-6.3/pseudo/C.pbe-n-rrkjus_psl.1.0.0.UPF
     MD5 check sum: 1fdd950c42eb37d8afe3dd2f8d12311e
     Pseudo is Ultrasoft + core correction, Zval =  4.0
     Generated using "atomic" code by A. Dal Corso v.6.3MaX
     Using radial grid of 1073 points,  4 beta functions with:
                l(1) =   0
                l(2) =   0
                l(3) =   1
                l(4) =   1
     Q(r) pseudized with 0 coefficients

[...]

     Atomic displacements:
     There are   6 irreducible representations

[...]

     Representation     6      1 modes -B_2  D_4  S_4  To be done

     Alpha used in Ewald sum =   1.7000

     negative rho (up, down):  1.156E-03 0.000E+00

[...]

     Representation #  6 mode #   6

     Self-consistent Calculation

[...]

      thresh= 1.425E-07 alpha_mix =  0.700 |ddv_scf|^2 =  5.650E-15

     End of self-consistent calculation

     Convergence has been achieved

     Number of q in the star =    1
     List of q in the star:
          1  -0.577351205   0.000000000  -0.122970072

     Diagonalizing the dynamical matrix

     q = (   -0.577351205   0.000000000  -0.122970072 )

     freq (    1) =      14.321234 [THz] =     477.704943 [cm-1]
     freq (    2) =      18.527957 [THz] =     618.026121 [cm-1]
     freq (    3) =      19.066640 [THz] =     635.994660 [cm-1]
     freq (    4) =      39.739937 [THz] =    1325.581606 [cm-1]
     freq (    5) =      40.487414 [THz] =    1350.514757 [cm-1]
     freq (    6) =      42.109655 [THz] =    1404.626880 [cm-1]

     Mode symmetry, C_2v (mm2)  point group:

     freq (  1 -  1) =        477.7  [cm-1]   --> B_1  D_3  S_3
     freq (  2 -  2) =        618.0  [cm-1]   --> B_2  D_4  S_4
     freq (  3 -  3) =        636.0  [cm-1]   --> B_1  D_3  S_3
     freq (  4 -  4) =       1325.6  [cm-1]   --> A_1  D_1  S_1
     freq (  5 -  5) =       1350.5  [cm-1]   --> A_1  D_1  S_1
     freq (  6 -  6) =       1404.6  [cm-1]   --> B_2  D_4  S_4

     General routines

     Parallel routines

     INITIALIZATION:

     DYNAMICAL MATRIX:

      General routines

   This run was terminated on:  11:44: 9   8Mar2023

   JOB DONE.